50
    1   280   218
    2   408   419
    3     1     5
    4   382   426
    5     1    15
    6   416   464
    7   484   528
    8   837   818
    9   802   760
   10   622   721
   11   953   910
   12   358   458
   13   738   703
   14   561   571
   15   842   767
   16    10    91
   17   288   272
   18   835   807
   19   690   724
   20   525   549
   21   763   664
   22     6    78
   23   365   447
   24   715   757
   25   260   319
   26   115   207
   27   962   901
   28   795   726
   29   595   560
   30   409   446
   31   428   380
   32   870   842
   33   157   246
   34   832   908
   35   303   303
   36   410   376
   37   579   655
   38   854   947
   39   675   679
   40   778   797
   41    25     2
   42   829   920
   43   749   665
   44   843   812
   45   723   682
   46   943   953
   47   463   540
   48   480   472
   49   110    50
   50   843   823
13691
